TOUR_SECTION
1
137
121
78
120
41
26
76
112
3
162
145
90
116
183
12
118
173
75
21
193
143
180
158
82
62
132
159
14
182
8
117
114
155
7
36
46
164
38
161
131
191
123
138
18
113
94
142
181
115
109
63
85
185
188
86
102
56
57
88
93
11
126
59
49
151
55
50
136
100
101
16
45
20
186
6
24
70
72
127
69
37
68
98
135
166
122
5
160
128
4
149
110
51
170
23
125
67
107
77
152
2
74
198
39
35
17
71
172
79
111
156
154
10
47
103
175
104
168
163
30
189
54
81
146
150
106
29
34
32
140
177
96
201
197
92
15
80
184
52
53
22
60
42
167
179
196
139
200
13
19
195
40
174
65
134
178
25
133
84
28
58
44
176
141
33
99
194
105
95
190
147
27
43
165
108
119
192
144
199
187
87
31
48
61
83
148
89
129
91
124
157
66
169
9
97
73
64
130
153
171
-1
EOF